c turning on binary mode checking
c parsing input formula with 202048 variables and 780985 clauses
c finished parsing, read 16751711 bytes from proof file
c detected empty clause; start verification via backward checking
c 11790 of 780985 clauses in core                            
c 15390 of 457026 lemmas in core using 81717 resolution steps
c 0 RAT lemmas in core; 658 redundant literals in core lemmas
s VERIFIED
c verification time: 2.173 seconds
